\ Model LinearPF_QuadCost_copy
\ LP format - for model browsing. Use MPS format to capture full model detail.
\ Signature: 0xdd638660a2a08bdd
Minimize
 
Subject To
 Pbal: p[0] + p[1] + p[2] = 250
 Qbal: q[0] + q[1] + q[2] = 80
 Vmax0: 0.0012 p[0] + 0.0009 p[1] + 0.0006 p[2] + 0.0008 q[0] + 0.0006 q[1]
   + 0.0004 q[2] <= 0.05
Bounds
 p[1] free
 -infinity <= p[2] <= 200
 q[1] free
 -infinity <= q[2] <= 100
End
